; benchmark generated from python API
(set-info :status unknown)
(declare-fun x_v0q0.i () Real)
(declare-fun x_v0q0.r () Real)
(declare-fun x_v0q1.i () Real)
(declare-fun x_v0q1.r () Real)
(declare-fun x_v0q2.i () Real)
(declare-fun x_v0q2.r () Real)
(declare-fun x_v0q3.i () Real)
(declare-fun x_v0q3.r () Real)
(declare-fun x_v0q4.i () Real)
(declare-fun x_v0q4.r () Real)
(declare-fun x_v0q5.i () Real)
(declare-fun x_v0q5.r () Real)
(declare-fun x_v0q6.i () Real)
(declare-fun x_v0q6.r () Real)
(declare-fun x_v0q7.i () Real)
(declare-fun x_v0q7.r () Real)
(declare-fun x_v1q0.i () Real)
(declare-fun x_v1q0.r () Real)
(declare-fun x_v1q1.i () Real)
(declare-fun x_v1q1.r () Real)
(declare-fun x_v1q2.i () Real)
(declare-fun x_v1q2.r () Real)
(declare-fun x_v1q3.i () Real)
(declare-fun x_v1q3.r () Real)
(declare-fun x_v1q4.i () Real)
(declare-fun x_v1q4.r () Real)
(declare-fun x_v1q5.i () Real)
(declare-fun x_v1q5.r () Real)
(declare-fun x_v1q6.i () Real)
(declare-fun x_v1q6.r () Real)
(declare-fun x_v1q7.i () Real)
(declare-fun x_v1q7.r () Real)
(declare-fun x_v4q0.i () Real)
(declare-fun x_v4q0.r () Real)
(declare-fun x_v4q1.i () Real)
(declare-fun x_v4q1.r () Real)
(declare-fun x_v4q2.i () Real)
(declare-fun x_v4q2.r () Real)
(declare-fun x_v4q3.i () Real)
(declare-fun x_v4q3.r () Real)
(declare-fun x_v4q4.i () Real)
(declare-fun x_v4q4.r () Real)
(declare-fun x_v4q5.i () Real)
(declare-fun x_v4q5.r () Real)
(declare-fun x_v4q6.i () Real)
(declare-fun x_v4q6.r () Real)
(declare-fun x_v4q7.i () Real)
(declare-fun x_v4q7.r () Real)
(declare-fun x_v5q0.i () Real)
(declare-fun x_v5q0.r () Real)
(declare-fun x_v5q1.i () Real)
(declare-fun x_v5q1.r () Real)
(declare-fun x_v5q2.i () Real)
(declare-fun x_v5q2.r () Real)
(declare-fun x_v5q3.i () Real)
(declare-fun x_v5q3.r () Real)
(declare-fun x_v5q4.i () Real)
(declare-fun x_v5q4.r () Real)
(declare-fun x_v5q5.i () Real)
(declare-fun x_v5q5.r () Real)
(declare-fun x_v5q6.i () Real)
(declare-fun x_v5q6.r () Real)
(declare-fun x_v5q7.i () Real)
(declare-fun x_v5q7.r () Real)
(declare-fun f (Int) Int)
(declare-fun x_v8q0.i () Real)
(declare-fun x_v8q0.r () Real)
(declare-fun x_v8q1.i () Real)
(declare-fun x_v8q1.r () Real)
(declare-fun x_v8q2.i () Real)
(declare-fun x_v8q2.r () Real)
(declare-fun x_v8q3.i () Real)
(declare-fun x_v8q3.r () Real)
(declare-fun x_v8q4.i () Real)
(declare-fun x_v8q4.r () Real)
(declare-fun x_v8q5.i () Real)
(declare-fun x_v8q5.r () Real)
(declare-fun x_v8q6.i () Real)
(declare-fun x_v8q6.r () Real)
(declare-fun x_v8q7.i () Real)
(declare-fun x_v8q7.r () Real)
(declare-fun Pr_x_v8_7 () Real)
(declare-fun Pr_x_v8_6 () Real)
(declare-fun Pr_x_v8_5 () Real)
(declare-fun Pr_x_v8_4 () Real)
(declare-fun Pr_x_v8_3 () Real)
(declare-fun Pr_x_v8_2 () Real)
(declare-fun Pr_x_v8_1 () Real)
(declare-fun Pr_x_v8_0 () Real)
(declare-fun Pr_x_v8_sum () Real)
(declare-fun meas_x () Int)
(declare-fun x_v0c () Int)
(declare-fun grover_rev_ret () Int)
(assert
 (and (= x_v0q0.r 0.0) (= 0.0 x_v0q0.i)))
(assert
 (and (= x_v0q1.r 0.0) (= 0.0 x_v0q1.i)))
(assert
 (and (= x_v0q2.r 1.0) (= 0.0 x_v0q2.i)))
(assert
 (and (= x_v0q3.r 0.0) (= 0.0 x_v0q3.i)))
(assert
 (and (= x_v0q4.r 0.0) (= 0.0 x_v0q4.i)))
(assert
 (and (= x_v0q5.r 0.0) (= 0.0 x_v0q5.i)))
(assert
 (and (= x_v0q6.r 0.0) (= 0.0 x_v0q6.i)))
(assert
 (and (= x_v0q7.r 0.0) (= 0.0 x_v0q7.i)))
(assert
 (let ((?x256 (+ (* (root-obj (+ (* 8 (^ x 2)) (- 1)) 2) x_v0q0.i) (* (root-obj (+ (* 8 (^ x 2)) (- 1)) 2) x_v0q1.i) (* (root-obj (+ (* 8 (^ x 2)) (- 1)) 2) x_v0q2.i) (* (root-obj (+ (* 8 (^ x 2)) (- 1)) 2) x_v0q3.i) (* (root-obj (+ (* 8 (^ x 2)) (- 1)) 2) x_v0q4.i) (* (root-obj (+ (* 8 (^ x 2)) (- 1)) 2) x_v0q5.i) (* (root-obj (+ (* 8 (^ x 2)) (- 1)) 2) x_v0q6.i) (* (root-obj (+ (* 8 (^ x 2)) (- 1)) 2) x_v0q7.i))))
 (let ((?x117 (+ (* (root-obj (+ (* 8 (^ x 2)) (- 1)) 2) x_v0q0.r) (* (root-obj (+ (* 8 (^ x 2)) (- 1)) 2) x_v0q1.r) (* (root-obj (+ (* 8 (^ x 2)) (- 1)) 2) x_v0q2.r) (* (root-obj (+ (* 8 (^ x 2)) (- 1)) 2) x_v0q3.r) (* (root-obj (+ (* 8 (^ x 2)) (- 1)) 2) x_v0q4.r) (* (root-obj (+ (* 8 (^ x 2)) (- 1)) 2) x_v0q5.r) (* (root-obj (+ (* 8 (^ x 2)) (- 1)) 2) x_v0q6.r) (* (root-obj (+ (* 8 (^ x 2)) (- 1)) 2) x_v0q7.r))))
 (and (= x_v1q0.r ?x117) (= x_v1q0.i ?x256)))))
(assert
 (let ((?x231 (+ (* (root-obj (+ (* 8 (^ x 2)) (- 1)) 2) x_v0q0.i) (* (root-obj (+ (* 8 (^ x 2)) (- 1)) 1) x_v0q1.i) (* (root-obj (+ (* 8 (^ x 2)) (- 1)) 2) x_v0q2.i) (* (root-obj (+ (* 8 (^ x 2)) (- 1)) 1) x_v0q3.i) (* (root-obj (+ (* 8 (^ x 2)) (- 1)) 2) x_v0q4.i) (* (root-obj (+ (* 8 (^ x 2)) (- 1)) 1) x_v0q5.i) (* (root-obj (+ (* 8 (^ x 2)) (- 1)) 2) x_v0q6.i) (* (root-obj (+ (* 8 (^ x 2)) (- 1)) 1) x_v0q7.i))))
 (let ((?x92 (+ (* (root-obj (+ (* 8 (^ x 2)) (- 1)) 2) x_v0q0.r) (* (root-obj (+ (* 8 (^ x 2)) (- 1)) 1) x_v0q1.r) (* (root-obj (+ (* 8 (^ x 2)) (- 1)) 2) x_v0q2.r) (* (root-obj (+ (* 8 (^ x 2)) (- 1)) 1) x_v0q3.r) (* (root-obj (+ (* 8 (^ x 2)) (- 1)) 2) x_v0q4.r) (* (root-obj (+ (* 8 (^ x 2)) (- 1)) 1) x_v0q5.r) (* (root-obj (+ (* 8 (^ x 2)) (- 1)) 2) x_v0q6.r) (* (root-obj (+ (* 8 (^ x 2)) (- 1)) 1) x_v0q7.r))))
 (and (= x_v1q1.r ?x92) (= x_v1q1.i ?x231)))))
(assert
 (let ((?x198 (+ (* (root-obj (+ (* 8 (^ x 2)) (- 1)) 2) x_v0q0.i) (* (root-obj (+ (* 8 (^ x 2)) (- 1)) 2) x_v0q1.i) (* (root-obj (+ (* 8 (^ x 2)) (- 1)) 1) x_v0q2.i) (* (root-obj (+ (* 8 (^ x 2)) (- 1)) 1) x_v0q3.i) (* (root-obj (+ (* 8 (^ x 2)) (- 1)) 2) x_v0q4.i) (* (root-obj (+ (* 8 (^ x 2)) (- 1)) 2) x_v0q5.i) (* (root-obj (+ (* 8 (^ x 2)) (- 1)) 1) x_v0q6.i) (* (root-obj (+ (* 8 (^ x 2)) (- 1)) 1) x_v0q7.i))))
 (let ((?x219 (+ (* (root-obj (+ (* 8 (^ x 2)) (- 1)) 2) x_v0q0.r) (* (root-obj (+ (* 8 (^ x 2)) (- 1)) 2) x_v0q1.r) (* (root-obj (+ (* 8 (^ x 2)) (- 1)) 1) x_v0q2.r) (* (root-obj (+ (* 8 (^ x 2)) (- 1)) 1) x_v0q3.r) (* (root-obj (+ (* 8 (^ x 2)) (- 1)) 2) x_v0q4.r) (* (root-obj (+ (* 8 (^ x 2)) (- 1)) 2) x_v0q5.r) (* (root-obj (+ (* 8 (^ x 2)) (- 1)) 1) x_v0q6.r) (* (root-obj (+ (* 8 (^ x 2)) (- 1)) 1) x_v0q7.r))))
 (and (= x_v1q2.r ?x219) (= x_v1q2.i ?x198)))))
(assert
 (let ((?x189 (+ (* (root-obj (+ (* 8 (^ x 2)) (- 1)) 2) x_v0q0.i) (* (root-obj (+ (* 8 (^ x 2)) (- 1)) 1) x_v0q1.i) (* (root-obj (+ (* 8 (^ x 2)) (- 1)) 1) x_v0q2.i) (* (root-obj (+ (* 8 (^ x 2)) (- 1)) 2) x_v0q3.i) (* (root-obj (+ (* 8 (^ x 2)) (- 1)) 2) x_v0q4.i) (* (root-obj (+ (* 8 (^ x 2)) (- 1)) 1) x_v0q5.i) (* (root-obj (+ (* 8 (^ x 2)) (- 1)) 1) x_v0q6.i) (* (root-obj (+ (* 8 (^ x 2)) (- 1)) 2) x_v0q7.i))))
 (let ((?x183 (+ (* (root-obj (+ (* 8 (^ x 2)) (- 1)) 2) x_v0q0.r) (* (root-obj (+ (* 8 (^ x 2)) (- 1)) 1) x_v0q1.r) (* (root-obj (+ (* 8 (^ x 2)) (- 1)) 1) x_v0q2.r) (* (root-obj (+ (* 8 (^ x 2)) (- 1)) 2) x_v0q3.r) (* (root-obj (+ (* 8 (^ x 2)) (- 1)) 2) x_v0q4.r) (* (root-obj (+ (* 8 (^ x 2)) (- 1)) 1) x_v0q5.r) (* (root-obj (+ (* 8 (^ x 2)) (- 1)) 1) x_v0q6.r) (* (root-obj (+ (* 8 (^ x 2)) (- 1)) 2) x_v0q7.r))))
 (and (= x_v1q3.r ?x183) (= x_v1q3.i ?x189)))))
(assert
 (let ((?x665 (+ (* (root-obj (+ (* 8 (^ x 2)) (- 1)) 2) x_v0q0.i) (* (root-obj (+ (* 8 (^ x 2)) (- 1)) 2) x_v0q1.i) (* (root-obj (+ (* 8 (^ x 2)) (- 1)) 2) x_v0q2.i) (* (root-obj (+ (* 8 (^ x 2)) (- 1)) 2) x_v0q3.i) (* (root-obj (+ (* 8 (^ x 2)) (- 1)) 1) x_v0q4.i) (* (root-obj (+ (* 8 (^ x 2)) (- 1)) 1) x_v0q5.i) (* (root-obj (+ (* 8 (^ x 2)) (- 1)) 1) x_v0q6.i) (* (root-obj (+ (* 8 (^ x 2)) (- 1)) 1) x_v0q7.i))))
 (let ((?x64 (+ (* (root-obj (+ (* 8 (^ x 2)) (- 1)) 2) x_v0q0.r) (* (root-obj (+ (* 8 (^ x 2)) (- 1)) 2) x_v0q1.r) (* (root-obj (+ (* 8 (^ x 2)) (- 1)) 2) x_v0q2.r) (* (root-obj (+ (* 8 (^ x 2)) (- 1)) 2) x_v0q3.r) (* (root-obj (+ (* 8 (^ x 2)) (- 1)) 1) x_v0q4.r) (* (root-obj (+ (* 8 (^ x 2)) (- 1)) 1) x_v0q5.r) (* (root-obj (+ (* 8 (^ x 2)) (- 1)) 1) x_v0q6.r) (* (root-obj (+ (* 8 (^ x 2)) (- 1)) 1) x_v0q7.r))))
 (and (= x_v1q4.r ?x64) (= x_v1q4.i ?x665)))))
(assert
 (let ((?x683 (+ (* (root-obj (+ (* 8 (^ x 2)) (- 1)) 2) x_v0q0.i) (* (root-obj (+ (* 8 (^ x 2)) (- 1)) 1) x_v0q1.i) (* (root-obj (+ (* 8 (^ x 2)) (- 1)) 2) x_v0q2.i) (* (root-obj (+ (* 8 (^ x 2)) (- 1)) 1) x_v0q3.i) (* (root-obj (+ (* 8 (^ x 2)) (- 1)) 1) x_v0q4.i) (* (root-obj (+ (* 8 (^ x 2)) (- 1)) 2) x_v0q5.i) (* (root-obj (+ (* 8 (^ x 2)) (- 1)) 1) x_v0q6.i) (* (root-obj (+ (* 8 (^ x 2)) (- 1)) 2) x_v0q7.i))))
 (let ((?x671 (+ (* (root-obj (+ (* 8 (^ x 2)) (- 1)) 2) x_v0q0.r) (* (root-obj (+ (* 8 (^ x 2)) (- 1)) 1) x_v0q1.r) (* (root-obj (+ (* 8 (^ x 2)) (- 1)) 2) x_v0q2.r) (* (root-obj (+ (* 8 (^ x 2)) (- 1)) 1) x_v0q3.r) (* (root-obj (+ (* 8 (^ x 2)) (- 1)) 1) x_v0q4.r) (* (root-obj (+ (* 8 (^ x 2)) (- 1)) 2) x_v0q5.r) (* (root-obj (+ (* 8 (^ x 2)) (- 1)) 1) x_v0q6.r) (* (root-obj (+ (* 8 (^ x 2)) (- 1)) 2) x_v0q7.r))))
 (and (= x_v1q5.r ?x671) (= x_v1q5.i ?x683)))))
(assert
 (let ((?x600 (+ (* (root-obj (+ (* 8 (^ x 2)) (- 1)) 2) x_v0q0.i) (* (root-obj (+ (* 8 (^ x 2)) (- 1)) 2) x_v0q1.i) (* (root-obj (+ (* 8 (^ x 2)) (- 1)) 1) x_v0q2.i) (* (root-obj (+ (* 8 (^ x 2)) (- 1)) 1) x_v0q3.i) (* (root-obj (+ (* 8 (^ x 2)) (- 1)) 1) x_v0q4.i) (* (root-obj (+ (* 8 (^ x 2)) (- 1)) 1) x_v0q5.i) (* (root-obj (+ (* 8 (^ x 2)) (- 1)) 2) x_v0q6.i) (* (root-obj (+ (* 8 (^ x 2)) (- 1)) 2) x_v0q7.i))))
 (let ((?x653 (+ (* (root-obj (+ (* 8 (^ x 2)) (- 1)) 2) x_v0q0.r) (* (root-obj (+ (* 8 (^ x 2)) (- 1)) 2) x_v0q1.r) (* (root-obj (+ (* 8 (^ x 2)) (- 1)) 1) x_v0q2.r) (* (root-obj (+ (* 8 (^ x 2)) (- 1)) 1) x_v0q3.r) (* (root-obj (+ (* 8 (^ x 2)) (- 1)) 1) x_v0q4.r) (* (root-obj (+ (* 8 (^ x 2)) (- 1)) 1) x_v0q5.r) (* (root-obj (+ (* 8 (^ x 2)) (- 1)) 2) x_v0q6.r) (* (root-obj (+ (* 8 (^ x 2)) (- 1)) 2) x_v0q7.r))))
 (and (= x_v1q6.r ?x653) (= x_v1q6.i ?x600)))))
(assert
 (let ((?x632 (+ (* (root-obj (+ (* 8 (^ x 2)) (- 1)) 2) x_v0q0.i) (* (root-obj (+ (* 8 (^ x 2)) (- 1)) 1) x_v0q1.i) (* (root-obj (+ (* 8 (^ x 2)) (- 1)) 1) x_v0q2.i) (* (root-obj (+ (* 8 (^ x 2)) (- 1)) 2) x_v0q3.i) (* (root-obj (+ (* 8 (^ x 2)) (- 1)) 1) x_v0q4.i) (* (root-obj (+ (* 8 (^ x 2)) (- 1)) 2) x_v0q5.i) (* (root-obj (+ (* 8 (^ x 2)) (- 1)) 2) x_v0q6.i) (* (root-obj (+ (* 8 (^ x 2)) (- 1)) 1) x_v0q7.i))))
 (let ((?x620 (+ (* (root-obj (+ (* 8 (^ x 2)) (- 1)) 2) x_v0q0.r) (* (root-obj (+ (* 8 (^ x 2)) (- 1)) 1) x_v0q1.r) (* (root-obj (+ (* 8 (^ x 2)) (- 1)) 1) x_v0q2.r) (* (root-obj (+ (* 8 (^ x 2)) (- 1)) 2) x_v0q3.r) (* (root-obj (+ (* 8 (^ x 2)) (- 1)) 1) x_v0q4.r) (* (root-obj (+ (* 8 (^ x 2)) (- 1)) 2) x_v0q5.r) (* (root-obj (+ (* 8 (^ x 2)) (- 1)) 2) x_v0q6.r) (* (root-obj (+ (* 8 (^ x 2)) (- 1)) 1) x_v0q7.r))))
 (and (= x_v1q7.r ?x620) (= x_v1q7.i ?x632)))))
(assert
 (and (= x_v4q0.r x_v1q0.r) (= x_v4q0.i x_v1q0.i)))
(assert
 (and (= x_v4q1.r (* (- 1.0) x_v1q1.r)) (= x_v4q1.i (* (- 1.0) x_v1q1.i))))
(assert
 (and (= x_v4q2.r (* (- 1.0) x_v1q2.r)) (= x_v4q2.i (* (- 1.0) x_v1q2.i))))
(assert
 (and (= x_v4q3.r (* (- 1.0) x_v1q3.r)) (= x_v4q3.i (* (- 1.0) x_v1q3.i))))
(assert
 (and (= x_v4q4.r (* (- 1.0) x_v1q4.r)) (= x_v4q4.i (* (- 1.0) x_v1q4.i))))
(assert
 (and (= x_v4q5.r (* (- 1.0) x_v1q5.r)) (= x_v4q5.i (* (- 1.0) x_v1q5.i))))
(assert
 (and (= x_v4q6.r (* (- 1.0) x_v1q6.r)) (= x_v4q6.i (* (- 1.0) x_v1q6.i))))
(assert
 (and (= x_v4q7.r (* (- 1.0) x_v1q7.r)) (= x_v4q7.i (* (- 1.0) x_v1q7.i))))
(assert
 (let ((?x566 (+ (* (root-obj (+ (* 8 (^ x 2)) (- 1)) 2) x_v4q0.i) (* (root-obj (+ (* 8 (^ x 2)) (- 1)) 2) x_v4q1.i) (* (root-obj (+ (* 8 (^ x 2)) (- 1)) 2) x_v4q2.i) (* (root-obj (+ (* 8 (^ x 2)) (- 1)) 2) x_v4q3.i) (* (root-obj (+ (* 8 (^ x 2)) (- 1)) 2) x_v4q4.i) (* (root-obj (+ (* 8 (^ x 2)) (- 1)) 2) x_v4q5.i) (* (root-obj (+ (* 8 (^ x 2)) (- 1)) 2) x_v4q6.i) (* (root-obj (+ (* 8 (^ x 2)) (- 1)) 2) x_v4q7.i))))
 (let ((?x401 (+ (* (root-obj (+ (* 8 (^ x 2)) (- 1)) 2) x_v4q0.r) (* (root-obj (+ (* 8 (^ x 2)) (- 1)) 2) x_v4q1.r) (* (root-obj (+ (* 8 (^ x 2)) (- 1)) 2) x_v4q2.r) (* (root-obj (+ (* 8 (^ x 2)) (- 1)) 2) x_v4q3.r) (* (root-obj (+ (* 8 (^ x 2)) (- 1)) 2) x_v4q4.r) (* (root-obj (+ (* 8 (^ x 2)) (- 1)) 2) x_v4q5.r) (* (root-obj (+ (* 8 (^ x 2)) (- 1)) 2) x_v4q6.r) (* (root-obj (+ (* 8 (^ x 2)) (- 1)) 2) x_v4q7.r))))
 (and (= x_v5q0.r ?x401) (= x_v5q0.i ?x566)))))
(assert
 (let ((?x810 (+ (* (root-obj (+ (* 8 (^ x 2)) (- 1)) 2) x_v4q0.i) (* (root-obj (+ (* 8 (^ x 2)) (- 1)) 1) x_v4q1.i) (* (root-obj (+ (* 8 (^ x 2)) (- 1)) 2) x_v4q2.i) (* (root-obj (+ (* 8 (^ x 2)) (- 1)) 1) x_v4q3.i) (* (root-obj (+ (* 8 (^ x 2)) (- 1)) 2) x_v4q4.i) (* (root-obj (+ (* 8 (^ x 2)) (- 1)) 1) x_v4q5.i) (* (root-obj (+ (* 8 (^ x 2)) (- 1)) 2) x_v4q6.i) (* (root-obj (+ (* 8 (^ x 2)) (- 1)) 1) x_v4q7.i))))
 (let ((?x766 (+ (* (root-obj (+ (* 8 (^ x 2)) (- 1)) 2) x_v4q0.r) (* (root-obj (+ (* 8 (^ x 2)) (- 1)) 1) x_v4q1.r) (* (root-obj (+ (* 8 (^ x 2)) (- 1)) 2) x_v4q2.r) (* (root-obj (+ (* 8 (^ x 2)) (- 1)) 1) x_v4q3.r) (* (root-obj (+ (* 8 (^ x 2)) (- 1)) 2) x_v4q4.r) (* (root-obj (+ (* 8 (^ x 2)) (- 1)) 1) x_v4q5.r) (* (root-obj (+ (* 8 (^ x 2)) (- 1)) 2) x_v4q6.r) (* (root-obj (+ (* 8 (^ x 2)) (- 1)) 1) x_v4q7.r))))
 (and (= x_v5q1.r ?x766) (= x_v5q1.i ?x810)))))
(assert
 (let ((?x794 (+ (* (root-obj (+ (* 8 (^ x 2)) (- 1)) 2) x_v4q0.i) (* (root-obj (+ (* 8 (^ x 2)) (- 1)) 2) x_v4q1.i) (* (root-obj (+ (* 8 (^ x 2)) (- 1)) 1) x_v4q2.i) (* (root-obj (+ (* 8 (^ x 2)) (- 1)) 1) x_v4q3.i) (* (root-obj (+ (* 8 (^ x 2)) (- 1)) 2) x_v4q4.i) (* (root-obj (+ (* 8 (^ x 2)) (- 1)) 2) x_v4q5.i) (* (root-obj (+ (* 8 (^ x 2)) (- 1)) 1) x_v4q6.i) (* (root-obj (+ (* 8 (^ x 2)) (- 1)) 1) x_v4q7.i))))
 (let ((?x804 (+ (* (root-obj (+ (* 8 (^ x 2)) (- 1)) 2) x_v4q0.r) (* (root-obj (+ (* 8 (^ x 2)) (- 1)) 2) x_v4q1.r) (* (root-obj (+ (* 8 (^ x 2)) (- 1)) 1) x_v4q2.r) (* (root-obj (+ (* 8 (^ x 2)) (- 1)) 1) x_v4q3.r) (* (root-obj (+ (* 8 (^ x 2)) (- 1)) 2) x_v4q4.r) (* (root-obj (+ (* 8 (^ x 2)) (- 1)) 2) x_v4q5.r) (* (root-obj (+ (* 8 (^ x 2)) (- 1)) 1) x_v4q6.r) (* (root-obj (+ (* 8 (^ x 2)) (- 1)) 1) x_v4q7.r))))
 (and (= x_v5q2.r ?x804) (= x_v5q2.i ?x794)))))
(assert
 (let ((?x456 (+ (* (root-obj (+ (* 8 (^ x 2)) (- 1)) 2) x_v4q0.i) (* (root-obj (+ (* 8 (^ x 2)) (- 1)) 1) x_v4q1.i) (* (root-obj (+ (* 8 (^ x 2)) (- 1)) 1) x_v4q2.i) (* (root-obj (+ (* 8 (^ x 2)) (- 1)) 2) x_v4q3.i) (* (root-obj (+ (* 8 (^ x 2)) (- 1)) 2) x_v4q4.i) (* (root-obj (+ (* 8 (^ x 2)) (- 1)) 1) x_v4q5.i) (* (root-obj (+ (* 8 (^ x 2)) (- 1)) 1) x_v4q6.i) (* (root-obj (+ (* 8 (^ x 2)) (- 1)) 2) x_v4q7.i))))
 (let ((?x784 (+ (* (root-obj (+ (* 8 (^ x 2)) (- 1)) 2) x_v4q0.r) (* (root-obj (+ (* 8 (^ x 2)) (- 1)) 1) x_v4q1.r) (* (root-obj (+ (* 8 (^ x 2)) (- 1)) 1) x_v4q2.r) (* (root-obj (+ (* 8 (^ x 2)) (- 1)) 2) x_v4q3.r) (* (root-obj (+ (* 8 (^ x 2)) (- 1)) 2) x_v4q4.r) (* (root-obj (+ (* 8 (^ x 2)) (- 1)) 1) x_v4q5.r) (* (root-obj (+ (* 8 (^ x 2)) (- 1)) 1) x_v4q6.r) (* (root-obj (+ (* 8 (^ x 2)) (- 1)) 2) x_v4q7.r))))
 (and (= x_v5q3.r ?x784) (= x_v5q3.i ?x456)))))
(assert
 (let ((?x723 (+ (* (root-obj (+ (* 8 (^ x 2)) (- 1)) 2) x_v4q0.i) (* (root-obj (+ (* 8 (^ x 2)) (- 1)) 2) x_v4q1.i) (* (root-obj (+ (* 8 (^ x 2)) (- 1)) 2) x_v4q2.i) (* (root-obj (+ (* 8 (^ x 2)) (- 1)) 2) x_v4q3.i) (* (root-obj (+ (* 8 (^ x 2)) (- 1)) 1) x_v4q4.i) (* (root-obj (+ (* 8 (^ x 2)) (- 1)) 1) x_v4q5.i) (* (root-obj (+ (* 8 (^ x 2)) (- 1)) 1) x_v4q6.i) (* (root-obj (+ (* 8 (^ x 2)) (- 1)) 1) x_v4q7.i))))
 (let ((?x420 (+ (* (root-obj (+ (* 8 (^ x 2)) (- 1)) 2) x_v4q0.r) (* (root-obj (+ (* 8 (^ x 2)) (- 1)) 2) x_v4q1.r) (* (root-obj (+ (* 8 (^ x 2)) (- 1)) 2) x_v4q2.r) (* (root-obj (+ (* 8 (^ x 2)) (- 1)) 2) x_v4q3.r) (* (root-obj (+ (* 8 (^ x 2)) (- 1)) 1) x_v4q4.r) (* (root-obj (+ (* 8 (^ x 2)) (- 1)) 1) x_v4q5.r) (* (root-obj (+ (* 8 (^ x 2)) (- 1)) 1) x_v4q6.r) (* (root-obj (+ (* 8 (^ x 2)) (- 1)) 1) x_v4q7.r))))
 (and (= x_v5q4.r ?x420) (= x_v5q4.i ?x723)))))
(assert
 (let ((?x564 (+ (* (root-obj (+ (* 8 (^ x 2)) (- 1)) 2) x_v4q0.i) (* (root-obj (+ (* 8 (^ x 2)) (- 1)) 1) x_v4q1.i) (* (root-obj (+ (* 8 (^ x 2)) (- 1)) 2) x_v4q2.i) (* (root-obj (+ (* 8 (^ x 2)) (- 1)) 1) x_v4q3.i) (* (root-obj (+ (* 8 (^ x 2)) (- 1)) 1) x_v4q4.i) (* (root-obj (+ (* 8 (^ x 2)) (- 1)) 2) x_v4q5.i) (* (root-obj (+ (* 8 (^ x 2)) (- 1)) 1) x_v4q6.i) (* (root-obj (+ (* 8 (^ x 2)) (- 1)) 2) x_v4q7.i))))
 (let ((?x577 (+ (* (root-obj (+ (* 8 (^ x 2)) (- 1)) 2) x_v4q0.r) (* (root-obj (+ (* 8 (^ x 2)) (- 1)) 1) x_v4q1.r) (* (root-obj (+ (* 8 (^ x 2)) (- 1)) 2) x_v4q2.r) (* (root-obj (+ (* 8 (^ x 2)) (- 1)) 1) x_v4q3.r) (* (root-obj (+ (* 8 (^ x 2)) (- 1)) 1) x_v4q4.r) (* (root-obj (+ (* 8 (^ x 2)) (- 1)) 2) x_v4q5.r) (* (root-obj (+ (* 8 (^ x 2)) (- 1)) 1) x_v4q6.r) (* (root-obj (+ (* 8 (^ x 2)) (- 1)) 2) x_v4q7.r))))
 (and (= x_v5q5.r ?x577) (= x_v5q5.i ?x564)))))
(assert
 (let ((?x763 (+ (* (root-obj (+ (* 8 (^ x 2)) (- 1)) 2) x_v4q0.i) (* (root-obj (+ (* 8 (^ x 2)) (- 1)) 2) x_v4q1.i) (* (root-obj (+ (* 8 (^ x 2)) (- 1)) 1) x_v4q2.i) (* (root-obj (+ (* 8 (^ x 2)) (- 1)) 1) x_v4q3.i) (* (root-obj (+ (* 8 (^ x 2)) (- 1)) 1) x_v4q4.i) (* (root-obj (+ (* 8 (^ x 2)) (- 1)) 1) x_v4q5.i) (* (root-obj (+ (* 8 (^ x 2)) (- 1)) 2) x_v4q6.i) (* (root-obj (+ (* 8 (^ x 2)) (- 1)) 2) x_v4q7.i))))
 (let ((?x740 (+ (* (root-obj (+ (* 8 (^ x 2)) (- 1)) 2) x_v4q0.r) (* (root-obj (+ (* 8 (^ x 2)) (- 1)) 2) x_v4q1.r) (* (root-obj (+ (* 8 (^ x 2)) (- 1)) 1) x_v4q2.r) (* (root-obj (+ (* 8 (^ x 2)) (- 1)) 1) x_v4q3.r) (* (root-obj (+ (* 8 (^ x 2)) (- 1)) 1) x_v4q4.r) (* (root-obj (+ (* 8 (^ x 2)) (- 1)) 1) x_v4q5.r) (* (root-obj (+ (* 8 (^ x 2)) (- 1)) 2) x_v4q6.r) (* (root-obj (+ (* 8 (^ x 2)) (- 1)) 2) x_v4q7.r))))
 (and (= x_v5q6.r ?x740) (= x_v5q6.i ?x763)))))
(assert
 (let ((?x838 (+ (* (root-obj (+ (* 8 (^ x 2)) (- 1)) 2) x_v4q0.i) (* (root-obj (+ (* 8 (^ x 2)) (- 1)) 1) x_v4q1.i) (* (root-obj (+ (* 8 (^ x 2)) (- 1)) 1) x_v4q2.i) (* (root-obj (+ (* 8 (^ x 2)) (- 1)) 2) x_v4q3.i) (* (root-obj (+ (* 8 (^ x 2)) (- 1)) 1) x_v4q4.i) (* (root-obj (+ (* 8 (^ x 2)) (- 1)) 2) x_v4q5.i) (* (root-obj (+ (* 8 (^ x 2)) (- 1)) 2) x_v4q6.i) (* (root-obj (+ (* 8 (^ x 2)) (- 1)) 1) x_v4q7.i))))
 (let ((?x826 (+ (* (root-obj (+ (* 8 (^ x 2)) (- 1)) 2) x_v4q0.r) (* (root-obj (+ (* 8 (^ x 2)) (- 1)) 1) x_v4q1.r) (* (root-obj (+ (* 8 (^ x 2)) (- 1)) 1) x_v4q2.r) (* (root-obj (+ (* 8 (^ x 2)) (- 1)) 2) x_v4q3.r) (* (root-obj (+ (* 8 (^ x 2)) (- 1)) 1) x_v4q4.r) (* (root-obj (+ (* 8 (^ x 2)) (- 1)) 2) x_v4q5.r) (* (root-obj (+ (* 8 (^ x 2)) (- 1)) 2) x_v4q6.r) (* (root-obj (+ (* 8 (^ x 2)) (- 1)) 1) x_v4q7.r))))
 (and (= x_v5q7.r ?x826) (= x_v5q7.i ?x838)))))
(assert
 (let ((?x158 (+ 1.0 (* (- 2.0) (ite (= (f 0) 1) 1.0 0.0)))))
 (and (= x_v8q0.r (* x_v5q0.r ?x158)) (= x_v8q0.i (* x_v5q0.i ?x158)))))
(assert
 (let ((?x109 (+ 1.0 (* (- 2.0) (ite (= (f 1) 1) 1.0 0.0)))))
 (and (= x_v8q1.r (* x_v5q1.r ?x109)) (= x_v8q1.i (* x_v5q1.i ?x109)))))
(assert
 (let ((?x87 (+ 1.0 (* (- 2.0) (ite (= (f 2) 1) 1.0 0.0)))))
 (and (= x_v8q2.r (* x_v5q2.r ?x87)) (= x_v8q2.i (* x_v5q2.i ?x87)))))
(assert
 (let ((?x532 (+ 1.0 (* (- 2.0) (ite (= (f 3) 1) 1.0 0.0)))))
 (and (= x_v8q3.r (* x_v5q3.r ?x532)) (= x_v8q3.i (* x_v5q3.i ?x532)))))
(assert
 (let ((?x145 (+ 1.0 (* (- 2.0) (ite (= (f 4) 1) 1.0 0.0)))))
 (and (= x_v8q4.r (* x_v5q4.r ?x145)) (= x_v8q4.i (* x_v5q4.i ?x145)))))
(assert
 (let ((?x465 (+ 1.0 (* (- 2.0) (ite (= (f 5) 1) 1.0 0.0)))))
 (and (= x_v8q5.r (* x_v5q5.r ?x465)) (= x_v8q5.i (* x_v5q5.i ?x465)))))
(assert
 (let ((?x143 (+ 1.0 (* (- 2.0) (ite (= (f 6) 1) 1.0 0.0)))))
 (and (= x_v8q6.r (* x_v5q6.r ?x143)) (= x_v8q6.i (* x_v5q6.i ?x143)))))
(assert
 (let ((?x42 (+ 1.0 (* (- 2.0) (ite (= (f 7) 1) 1.0 0.0)))))
 (and (= x_v8q7.r (* x_v5q7.r ?x42)) (= x_v8q7.i (* x_v5q7.i ?x42)))))
(assert
 (and (and (<= Pr_x_v8_0 1.0) (>= Pr_x_v8_0 0.0)) (and (<= Pr_x_v8_1 1.0) (>= Pr_x_v8_1 0.0)) (and (<= Pr_x_v8_2 1.0) (>= Pr_x_v8_2 0.0)) (and (<= Pr_x_v8_3 1.0) (>= Pr_x_v8_3 0.0)) (and (<= Pr_x_v8_4 1.0) (>= Pr_x_v8_4 0.0)) (and (<= Pr_x_v8_5 1.0) (>= Pr_x_v8_5 0.0)) (and (<= Pr_x_v8_6 1.0) (>= Pr_x_v8_6 0.0)) (and (<= Pr_x_v8_7 1.0) (>= Pr_x_v8_7 0.0))))
(assert
 (let ((?x293 (+ Pr_x_v8_0 Pr_x_v8_1 Pr_x_v8_2 Pr_x_v8_3 Pr_x_v8_4 Pr_x_v8_5 Pr_x_v8_6 Pr_x_v8_7)))
 (= Pr_x_v8_sum ?x293)))
(assert
 (= Pr_x_v8_sum 1.0))
(assert
 (= Pr_x_v8_0 (+ (+ (^ x_v8q0.r 2.0) (^ x_v8q0.i 2.0)))))
(assert
 (= Pr_x_v8_1 (+ (+ (^ x_v8q1.r 2.0) (^ x_v8q1.i 2.0)))))
(assert
 (= Pr_x_v8_2 (+ (+ (^ x_v8q2.r 2.0) (^ x_v8q2.i 2.0)))))
(assert
 (= Pr_x_v8_3 (+ (+ (^ x_v8q3.r 2.0) (^ x_v8q3.i 2.0)))))
(assert
 (= Pr_x_v8_4 (+ (+ (^ x_v8q4.r 2.0) (^ x_v8q4.i 2.0)))))
(assert
 (= Pr_x_v8_5 (+ (+ (^ x_v8q5.r 2.0) (^ x_v8q5.i 2.0)))))
(assert
 (= Pr_x_v8_6 (+ (+ (^ x_v8q6.r 2.0) (^ x_v8q6.i 2.0)))))
(assert
 (= Pr_x_v8_7 (+ (+ (^ x_v8q7.r 2.0) (^ x_v8q7.i 2.0)))))
(assert
 (and (=> (>= Pr_x_v8_0 (/ 1.0 2.0)) (= meas_x 0)) (=> (= meas_x 0) (>= Pr_x_v8_0 (/ 1.0 2.0)))))
(assert
 (and (=> (>= Pr_x_v8_1 (/ 1.0 2.0)) (= meas_x 1)) (=> (= meas_x 1) (>= Pr_x_v8_1 (/ 1.0 2.0)))))
(assert
 (and (=> (>= Pr_x_v8_2 (/ 1.0 2.0)) (= meas_x 2)) (=> (= meas_x 2) (>= Pr_x_v8_2 (/ 1.0 2.0)))))
(assert
 (and (=> (>= Pr_x_v8_3 (/ 1.0 2.0)) (= meas_x 3)) (=> (= meas_x 3) (>= Pr_x_v8_3 (/ 1.0 2.0)))))
(assert
 (and (=> (>= Pr_x_v8_4 (/ 1.0 2.0)) (= meas_x 4)) (=> (= meas_x 4) (>= Pr_x_v8_4 (/ 1.0 2.0)))))
(assert
 (and (=> (>= Pr_x_v8_5 (/ 1.0 2.0)) (= meas_x 5)) (=> (= meas_x 5) (>= Pr_x_v8_5 (/ 1.0 2.0)))))
(assert
 (and (=> (>= Pr_x_v8_6 (/ 1.0 2.0)) (= meas_x 6)) (=> (= meas_x 6) (>= Pr_x_v8_6 (/ 1.0 2.0)))))
(assert
 (and (=> (>= Pr_x_v8_7 (/ 1.0 2.0)) (= meas_x 7)) (=> (= meas_x 7) (>= Pr_x_v8_7 (/ 1.0 2.0)))))
(assert
 (=> (= Pr_x_v8_0 0.0) (and (distinct meas_x 0) true)))
(assert
 (=> (= Pr_x_v8_1 0.0) (and (distinct meas_x 1) true)))
(assert
 (=> (= Pr_x_v8_2 0.0) (and (distinct meas_x 2) true)))
(assert
 (=> (= Pr_x_v8_3 0.0) (and (distinct meas_x 3) true)))
(assert
 (=> (= Pr_x_v8_4 0.0) (and (distinct meas_x 4) true)))
(assert
 (=> (= Pr_x_v8_5 0.0) (and (distinct meas_x 5) true)))
(assert
 (=> (= Pr_x_v8_6 0.0) (and (distinct meas_x 6) true)))
(assert
 (=> (= Pr_x_v8_7 0.0) (and (distinct meas_x 7) true)))
(assert
 (= x_v0c meas_x))
(assert
 (= grover_rev_ret x_v0c))
(check-sat)
